c This is QMaxSAT 2017 based on 14.07
c This is Glucose 3.0
c This is MiniSat 2.2.0
c WARNING: for repeatability, setting FPU to use double precision
c card = mrwto, comp = 0, pmodel = 0, narr = 3, mct = 16, verb = 0
cr firstCPXsol 0 0 0
c top = 214379
c |  Number of variables:    262233                                           |
c |  Number of clauses:      6539196                                          |
c |  Weight of hard clauses: 214379                                           |
c |  Number of soft clauses: 720                                              |
c |  Number of unit soft clauses: 720                                         |
c |  Maximum Cardinality (by unit): 643134       (643134      )               |
c last restart ## conflicts  :  54 32117 
o 8226 | cpuTime 1.17147 s
c Sum of weights = 214378
c A number of soft clauses remained = 240
c MRWTO encoding for Pseudo-Boolean Constraints
c sizeMax=8226
c No.0 Divisor=10	generated by pow1
c No.1 Divisor=10	generated by pow1
c No.2 Divisor=10	generated by pow1
c No.3 Divisor=10	generated by pow1
c p0= 10	p1= 10	p2= 10	p3= 10	
c number of digits = 5
c linkingVar[0].size = 10, linkingVar[1].size = 10, linkingVar[2].size = 10, linkingVar[3].size = 9, linkingVar[4].size = 1, 
c Pseudo-Boolean Constraints: 6523 variables and 60145 clauses
c Sum of weights = 214378
c A number of soft clauses remained = 240
c MRWTO encoding for Pseudo-Boolean Constraints
c sizeMax=8226
c No.0 Divisor=10	generated by pow1
c No.1 Divisor=10	generated by pow1
c No.2 Divisor=10	generated by pow1
c No.3 Divisor=10	generated by pow1
c p0= 10	p1= 10	p2= 10	p3= 10	
c number of digits = 5
c linkingVar[0].size = 10, linkingVar[1].size = 10, linkingVar[2].size = 10, linkingVar[3].size = 9, linkingVar[4].size = 1, 
c Pseudo-Boolean Constraints: 6523 variables and 60145 clauses
c Sum of weights = 214378
c A number of soft clauses remained = 240
c MRWTO encoding for Pseudo-Boolean Constraints
c sizeMax=8226
c No.0 Divisor=10	generated by pow1
c No.1 Divisor=10	generated by pow1
c No.2 Divisor=10	generated by pow1
c No.3 Divisor=10	generated by pow1
c p0= 10	p1= 10	p2= 10	p3= 10	
c number of digits = 5
c linkingVar[0].size = 10, linkingVar[1].size = 10, linkingVar[2].size = 10, linkingVar[3].size = 9, linkingVar[4].size = 1, 
c Pseudo-Boolean Constraints: 6523 variables and 60145 clauses
c last restart ## conflicts  :  80 34634 
o 6763 | cpuTime 1.4243 s
c last restart ## conflicts  :  89 34662 
o 6697 | cpuTime 1.48865 s
c last restart ## conflicts  :  92 33585 
o 6363 | cpuTime 5.03944 s
c last restart ## conflicts  :  221 34667 
o 5345 | cpuTime 8.27361 s
c last restart ## conflicts  :  345 34742 
o 5144 | cpuTime 17.1905 s
s OPTIMUM FOUND
cr positiVarArr: [ | 4@1(1->4) | 19@1(2->3) | 39@1(3->7) | 50@1(4->2) | 112@1(7->16) | 209@1(14->1) | 254@1(16->14) | 264@2(1->8) | 321@2(5->1) | 381@2(8->13) | 396@2(9->12) | 415@2(10->15) | 442@2(12->10) | 457@2(13->9) | 485@2(15->5) | 523@3(1->11) | 593@3(6->1) | 678@3(11->6) | ]
cr the 1-th chain: [ 1->4->2->3->7->16->14->1 ] (#non-depot=6) {#cumul.=7}
cr the 2-th chain: [ 1->8->13->9->12->10->15->5->1 ] (#non-depot=7) {#cumul.=14}
cr the 3-th chain: [ 1->11->6->1 ] (#non-depot=2) {#cumul.=16}
c Latest Answer = 0 by 6 loops
c restarts              : 9182
c conflicts             : 2081409        (1115 /sec)
c decisions             : 5759408        (0.00 % random) (3086 /sec)
c propagations          : 13456653030    (7211421 /sec)
c conflict literals     : 156206774      (46.85 % deleted)
c Memory used           : 833.00 MB
c CPU time              : 1866.02 s
